8    
Scan Cycle 1/13 ; Dihedral 1-2-3-4 = 0.00 ; Iteration 8 Energy -191.85500432
C       -0.2893009508    1.3664773268    0.9731419832
C       -0.2873634853    0.0788701977    1.3556435264
C       -1.5362047927   -0.6919437953    1.5175815010
O       -2.6753022581   -0.2345731784    1.3206553772
H        0.6266712570    1.9354084536    0.8533175887
H       -1.2270397103    1.8767461633    0.7712860178
H        0.6402698862   -0.4492690273    1.5622674689
H       -1.4107294495   -1.7413653131    1.8359922509
8    
Scan Cycle 2/13 ; Dihedral 1-2-3-4 = 15.00 ; Iteration 10 Energy -191.85443215
C       -0.2865738609    1.3732161988    0.9951272050
C       -0.2834238203    0.0666906284    1.3063572068
C       -1.5328489335   -0.6908102622    1.5186225075
O       -2.6613399868   -0.2946397254    1.1802267903
H        0.6303434187    1.9381989474    0.8638826216
H       -1.2252384659    1.9038806106    0.8617981087
H        0.6459240553   -0.4742896491    1.4685214149
H       -1.4153249147   -1.6778705372    1.9991187175
8    
Scan Cycle 3/13 ; Dihedral 1-2-3-4 = 30.00 ; Iteration 11 Energy -191.85272117
C       -0.2749379389    1.3805165308    1.0176981186
C       -0.2749723915    0.0596692245    1.2583721098
C       -1.5193764613   -0.6910603773    1.5214291794
O       -2.6326750851   -0.3935207618    1.0575137621
H        0.6424844079    1.9422562771    0.8751881349
H       -1.2097962711    1.9302480837    0.9525400383
H        0.6555937255   -0.4922075844    1.3746781990
H       -1.4053092724   -1.5904486956    2.1527535986
8    
Scan Cycle 4/13 ; Dihedral 1-2-3-4 = 45.00 ; Iteration 11 Energy -191.84998013
C       -0.2613284738    1.3886783353    1.0427472276
C       -0.2785601932    0.0581895061    1.2141332350
C       -1.5182315910   -0.6879049523    1.5196513673
O       -2.6058964730   -0.5184379520    0.9466036673
H        0.6622379405    1.9382741421    0.8917275529
H       -1.1833367632    1.9633707849    1.0407786282
H        0.6482075148   -0.5102559334    1.2780420764
H       -1.4134123975   -1.4770184009    2.2870762685
8    
Scan Cycle 5/13 ; Dihedral 1-2-3-4 = 60.00 ; Iteration 11 Energy -191.84665196
C       -0.2449893847    1.4008404329    1.0700085165
C       -0.2853896676    0.0656602105    1.1772040646
C       -1.5179068121   -0.6862775146    1.5141620597
O       -2.5645349164   -0.6756862636    0.8501334661
H        0.6856970434    1.9341033140    0.9042051673
H       -1.1484097706    2.0009106623    1.1342594961
H        0.6341971491   -0.5199124250    1.1756676225
H       -1.4331497953   -1.3412749268    2.4020690594
8    
Scan Cycle 6/13 ; Dihedral 1-2-3-4 = 75.00 ; Iteration 11 Energy -191.84354222
C       -0.2315162489    1.4102882634    1.1012265047
C       -0.2954224784    0.0745744122    1.1525554802
C       -1.5229515412   -0.6884932796    1.5077414314
O       -2.4995398358   -0.8526482349    0.7648937378
H        0.7013345588    1.9290007785    0.9039975378
H       -1.1119674821    2.0308415962    1.2429755813
H        0.6095519268   -0.5268797011    1.0556104212
H       -1.4950564871   -1.1803712547    2.4992036932
8    
Scan Cycle 7/13 ; Dihedral 1-2-3-4 = 90.00 ; Iteration 10 Energy -191.84186218
C       -0.2171070128    1.4102660339    1.1401299299
C       -0.2910609915    0.0753125811    1.1485489934
C       -1.5204528762   -0.6938969948    1.5067973499
O       -2.3856218583   -1.0425585919    0.6941095657
H        0.7009151443    1.9263382705    0.8773092511
H       -1.0700072187    2.0368964926    1.3865353816
H        0.5821814667   -0.5300999634    0.9026585397
H       -1.6199016752   -0.9736423920    2.5728446312
8    
Scan Cycle 8/13 ; Dihedral 1-2-3-4 = 105.00 ; Iteration 11 Energy -191.84302120
C       -0.2021820183    1.3974427798    1.1847061823
C       -0.2708620260    0.0612270079    1.1546609226
C       -1.5065476148   -0.6970745299    1.5095448670
O       -2.2369343108   -1.2354377860    0.6675785650
H        0.6770871499    1.9293964626    0.8355981420
H       -1.0195080345    2.0098719085    1.5573803928
H        0.5446524803   -0.5272878657    0.7358453159
H       -1.7845989278   -0.7181380364    2.5796697994
8    
Scan Cycle 9/13 ; Dihedral 1-2-3-4 = 120.00 ; Iteration 11 Energy -191.84661761
C       -0.1873917702    1.3848186534    1.2238229096
C       -0.2600827723    0.0488765426    1.1398385927
C       -1.4947919987   -0.6906873925    1.5056919272
O       -2.1151292123   -1.4064269923    0.7067765664
H        0.6565193465    1.9376908509    0.8242154388
H       -0.9696811724    1.9741082141    1.6969451194
H        0.5017420418   -0.5187985937    0.6089572839
H       -1.9062786328   -0.4917006061    2.5126473859
8    
Scan Cycle 10/13 ; Dihedral 1-2-3-4 = 135.00 ; Iteration 11 Energy -191.85077513
C       -0.1714862688    1.3796131460    1.2531662568
C       -0.2669594101    0.0494315974    1.1033779326
C       -1.4916439047   -0.6790647375    1.4942040282
O       -2.0214901357   -1.5499296232    0.7879386680
H        0.6574816535    1.9465843963    0.8426905017
H       -0.9248080951    1.9483208653    1.7942111854
H        0.4595781549   -0.5051800176    0.5139998739
H       -1.9871019963   -0.3288893415    2.4191067281
8    
Scan Cycle 11/13 ; Dihedral 1-2-3-4 = 150.00 ; Iteration 11 Energy -191.85424854
C       -0.1395794557    1.3874902268    1.2662434407
C       -0.2691111141    0.0690617582    1.0472174814
C       -1.4762888243   -0.6593389142    1.4711084635
O       -1.9173428563   -1.6609445396    0.8861272766
H        0.6901599271    1.9615260779    0.8677026301
H       -0.8684589582    1.9385224021    1.8569502520
H        0.4334776390   -0.4774195001    0.4230808715
H       -2.0337126884   -0.2096887837    2.3144128462
8    
Scan Cycle 12/13 ; Dihedral 1-2-3-4 = 165.00 ; Iteration 10 Energy -191.85648996
C       -0.1210794855    1.3901016011    1.2829166516
C       -0.2928915922    0.0900678235    0.9930580849
C       -1.4801280485   -0.6443660916    1.4513596901
O       -1.8276619502   -1.7484651990    1.0030660653
H        0.7197064889    1.9623269303    0.9057280619
H       -0.8265064409    1.9267874498    1.9140091735
H        0.3930365826   -0.4510147306    0.3466127570
H       -2.0941713111   -0.1263239601    2.2123882517
8    
Scan Cycle 13/13 ; Dihedral 1-2-3-4 = 180.00 ; Iteration 10 Energy -191.85726165
C       -0.1075681669    1.3866206560    1.2999914743
C       -0.3240768321    0.1106588672    0.9411908684
C       -1.4896662676   -0.6346933288    1.4329879418
O       -1.7370522514   -1.8136980279    1.1332586469
H        0.7479223305    1.9519228251    0.9462528900
H       -0.7897489952    1.9093294672    1.9673457205
H        0.3480645628   -0.4244097498    0.2757069562
H       -2.1610423578   -0.0717069330    2.1090571429
