8

C             -1.049901541501        -0.453100542682         1.179748322458
C             -0.446770768048         0.935005786569         1.390140674691
H             -1.230809518384        -0.972160961583         2.143647320679
H             -2.022539092051        -0.401455332138         0.648182166983
H             -0.382111664488        -1.103590392969         0.577942092094
H             -1.114561366314         1.585496753032         1.991944839521
H              0.525865999751         0.883361083342         1.921708337970
H             -0.265861083742         1.454064777808         0.426241226133
